clingo version 5.2.2
Reading from kk
Solving...
Answer: 1
father(carlos) father(luis) mother(julia)
SATISFIABLE

Models       : 1
Calls        : 1
Time         : 0.000s (Solving: 0.00s 1st Model: 0.00s Unsat: 0.00s)
CPU Time     : 0.000s
